SAT
-1 2 -3 -4 -5 6 7 -8 -9 10 0
UNSAT
UNSAT
SAT
-1 2 3 -4 -5 -6 -7 -8 -9 10 0
UNSAT
SAT
-1 -2 3 4 -5 6 7 -8 9 10 0
UNSAT
SAT
-1 -2 3 -4 5 -6 7 8 -9 -10 0
SAT
-1 -2 -3 4 5 6 -7 -8 9 -10 0
UNSAT
SAT
-1 2 -3 -4 -5 -6 -7 -8 9 10 0
SAT
-1 -2 3 4 -5 6 7 -8 9 -10 0
SAT
1 2 3 4 -5 6 -7 -8 9 -10 0
SAT
1 -2 -3 4 5 -6 7 -8 -9 -10 0
UNSAT
SAT
1 -2 3 4 -5 6 -7 -8 9 -10 0
SAT
-1 -2 3 -4 5 -6 -7 8 9 -10 0
UNSAT
SAT
1 2 -3 4 -5 -6 7 8 -9 -10 0
UNSAT
SAT
1 -2 -3 -4 -5 6 -7 8 -9 10 0
SAT
1 2 3 4 5 -6 7 8 9 -10 0
SAT
-1 -2 3 4 5 -6 7 8 -9 10 0
UNSAT
UNSAT
SAT
1 -2 3 4 5 6 -7 8 9 -10 0
UNSAT
SAT
-1 -2 -3 4 -5 6 7 -8 -9 10 0
SAT
1 -2 3 -4 5 -6 -7 8 9 10 0
UNSAT
SAT
1 2 3 4 5 6 7 8 9 -10 0
SAT
-1 -2 -3 4 -5 -6 -7 8 9 10 0
SAT
1 2 3 4 5 -6 -7 8 9 10 0
SAT
-1 2 -3 4 -5 -6 7 8 -9 10 0
SAT
-1 2 -3 4 5 6 -7 -8 -9 -10 0
UNSAT
UNSAT
UNSAT
SAT
-1 -2 -3 -4 -5 -6 -7 -8 -9 10 0
SAT
1 -2 3 4 -5 6 -7 -8 -9 10 0
SAT
1 -2 3 -4 5 -6 -7 8 -9 -10 0
SAT
1 2 3 -4 5 -6 7 -8 9 -10 0
UNSAT
SAT
-1 2 -3 -4 5 -6 7 8 9 -10 0
SAT
1 2 -3 -4 -5 6 -7 8 -9 10 0
UNSAT
SAT
1 2 -3 4 5 -6 7 -8 -9 -10 0
SAT
-1 2 -3 4 5 6 -7 8 9 10 0
SAT
1 -2 -3 4 5 6 -7 -8 -9 -10 0
SAT
1 -2 3 -4 5 6 7 -8 9 10 0
UNSAT
SAT
1 2 3 -4 -5 6 -7 -8 -9 -10 0
SAT
1 -2 3 4 -5 6 -7 -8 -9 -10 0
SAT
-1 2 3 4 -5 6 7 -8 -9 10 0
UNSAT
SAT
1 -2 -3 4 -5 -6 -7 -8 9 -10 0
SAT
1 2 -3 4 5 6 7 8 -9 10 0
SAT
-1 2 -3 -4 -5 6 7 -8 9 10 0
SAT
1 -2 -3 4 5 -6 7 -8 -9 10 0
SAT
1 2 -3 4 -5 -6 7 -8 -9 -10 0
SAT
-1 2 -3 -4 5 -6 -7 8 9 10 0
SAT
1 2 3 4 5 6 7 -8 9 10 0
SAT
-1 2 -3 4 -5 6 7 8 -9 -10 0
SAT
-1 -2 -3 -4 -5 6 7 -8 9 10 0
SAT
1 -2 -3 -4 -5 -6 7 -8 -9 10 0
SAT
-1 -2 -3 4 -5 -6 7 8 9 10 0
SAT
-1 -2 3 -4 5 6 7 8 9 -10 0
UNSAT
SAT
-1 -2 -3 -4 -5 6 -7 8 9 10 0
UNSAT
SAT
1 2 3 -4 5 -6 -7 -8 -9 10 0
UNSAT
SAT
1 -2 3 4 5 6 -7 -8 9 -10 0
SAT
-1 -2 -3 4 -5 -6 -7 -8 9 -10 0
SAT
-1 -2 -3 4 5 -6 7 -8 9 10 0
SAT
-1 2 -3 4 5 -6 -7 8 9 10 0
SAT
-1 2 3 -4 -5 -6 -7 8 9 -10 0
SAT
1 -2 3 4 -5 -6 7 8 9 -10 0
SAT
-1 2 -3 -4 5 -6 -7 -8 9 -10 0
SAT
-1 2 -3 -4 5 -6 7 8 -9 -10 0
SAT
-1 -2 3 4 -5 6 -7 -8 -9 -10 0
UNSAT
SAT
1 -2 -3 -4 -5 -6 7 -8 -9 10 0
SAT
-1 2 3 4 -5 -6 -7 -8 -9 10 0
SAT
-1 -2 -3 4 5 -6 7 -8 -9 -10 0
SAT
1 2 3 -4 -5 6 7 -8 -9 -10 0
SAT
1 -2 3 -4 5 6 -7 -8 9 10 0
SAT
-1 2 3 4 -5 6 7 8 -9 -10 0
UNSAT
UNSAT
SAT
-1 2 -3 4 5 -6 7 -8 -9 -10 0
SAT
1 2 3 -4 -5 -6 7 -8 9 -10 0
UNSAT
SAT
1 2 -3 -4 5 -6 7 -8 -9 -10 0
SAT
1 2 3 4 -5 6 -7 -8 9 10 0
SAT
1 2 -3 -4 5 6 -7 8 9 -10 0
SAT
-1 -2 3 4 5 -6 -7 -8 9 10 0
UNSAT
UNSAT
SAT
-1 2 -3 4 -5 6 -7 8 9 10 0
